param NUMSCEN :=20; 			#scenarios
param prob := 0.05;			#probability of scenario;
param pI := 4;				#Total component number
param pT := 10;     			#Time horizon
param pT_ex := 50;			#extended time horizon
param ps := 2;				#Starting time
param pR := 12;				#Number of individuals = pT+2

param pd := 5;				#set up cost
